data/rand/rand_046.gr
p tdp 15 46
1 2
1 3
1 4
1 6
1 7
1 11
1 13
1 14
2 6
2 7
2 12
3 4
3 5
3 6
3 7
3 8
3 10
3 11
3 12
3 13
3 15
4 5
4 6
4 7
4 13
4 14
5 7
5 8
6 7
6 8
6 12
6 14
7 10
8 11
8 15
9 11
9 13
10 12
10 13
10 14
11 12
11 13
11 15
12 13
13 14
13 15
