solutions/best/rand/rand_046.sol
9
0
7
12
14
3
1
13
13
11
14
8
6
5
7
11
